p cnf 17 18
-1 16 0 
-2 -3 16 0 
-4 17 0 
-5 17 0 
-2 16 0 
-6 16 0 
-7 -2 16 0 
-8 -2 -7 -9 16 0 
-7 -8 16 0 
-10 -4 16 0 
-10 -11 16 0 
-12 -6 16 0 
-8 -13 -1 16 0 
-6 -1 16 0 
-14 16 0 
-7 16 0 
-1 -11 16 0 
-10 -15 16 0 
